
<<< setup



Le degré maximum du graphe est : 48


Le nombre d'arrètes du graphe simple correspondant est : 476

<<< generate

 ! ----------------------------------------------------------------------------
 ! Minimization problem - 50 variables, 633 constraints
 ! Preprocessing : 476 extractables eliminated, 133 constraints generated
 ! Initial process time : 0,00s (0,00s extraction + 0,00s propagation)
 !  . Log search space  : 328,1 (before), 251,5 (after)
 !  . Memory usage      : 949,3 Kb (before), 981,4 Kb (after)
 !  . Variables fixed   : 5
 ! ----------------------------------------------------------------------------
 !   Branches  Non-fixed                Branch decision                   Best
 *         47      0,00s                         -                          12
        1 000         16                   c(7)  =    4  F                  12
 *      1 150      0,03s                  c(36)  =    5                      9
        2 000         27                  c(40)  =    7  F                   9
        3 000         19                  c(32) !=    5                      9
        4 000         18                  c(14)  =    1                      9
        5 000         21                  c(12)  =    5  F                   9
        6 000         17                  c(24)  =    5  F                   9
        7 000         14                  c(39)  =    8  F                   9
 *      7 651      0,24s                  c(13)  =    7                      8
 *      7 998      0,25s                  c(41)  =    1                      7
        8 000         42                  c(28)  =    6  F                   7
 ! Search terminated, replaying optimal solution
 ! ----------------------------------------------------------------------------
 ! Solution status        : Terminated normally, optimal found (tol. = 0)
 ! Number of branches     : 8 198
 ! Number of fails        : 4 030
 ! Total memory usage     : 1,7 Mb (1,1 Mb CP Optimizer + 0,5 Mb Concert)
 ! Time spent in solve    : 0,26s (0,26s engine + 0,00s extraction)
 ! Search speed (br. / s) : 31 530,8
 ! ----------------------------------------------------------------------------

<<< solve


OBJECTIVE: 7
coloration : [1 2 3 4 5 5 6 1 5 6 2 3 4 7 3 4 7 2 5 6 2 5 6 3 4 7 7 1 4 7 1 1 6 2 3 6 2
     3 4 7 1 5 7 1 5 6 2 3 4]
la matrice d'adjacence était :
 [[0 2 2 2 2 2 0 0 0 2 2 2 0 0 2 2 2 0 2 2 2 0 0 2 0 2 0 0 0 2 0 0 0 2 0 2 0
         0 2 0 0 2 0 0 0 2 0 0 0]
         [2 0 2 2 2 2 0 2 0 2 0 2 0 0 0 2 2 0 0 0 0 2 2 0 2 0 2 2 0 2 2 0 0
         0 0 2 0 2 0 2 0 0 0 0 2 0 0 2 0]
         [2 2 0 2 2 0 2 0 2 0 2 0 2 0 0 0 2 2 2 0 0 2 2 0 0 2 2 2 0 0 2 0 2
         0 0 0 2 0 2 0 2 0 2 0 0 2 0 0 2]
         [2 2 2 0 2 0 0 0 0 2 0 2 0 2 0 0 0 0 2 2 0 2 2 2 0 0 2 2 0 0 0 2 2
         2 0 0 0 2 0 2 0 2 0 2 0 0 2 0 0]
         [2 2 2 2 0 0 0 2 0 0 2 0 0 2 0 2 0 0 0 2 0 0 0 0 0 2 0 0 2 2 2 0 2
         2 2 0 0 2 2 2 0 0 0 2 0 2 0 2 0]
         [2 2 0 0 0 0 2 0 0 0 0 2 2 2 0 0 0 2 0 2 0 0 0 2 2 2 2 0 0 2 0 2 0
         2 0 2 0 0 0 0 2 0 0 0 0 0 0 2 0]
         [0 0 2 0 0 2 0 0 0 0 0 0 2 2 0 0 0 2 2 0 2 0 0 2 2 2 0 2 0 0 2 2 0
         0 2 0 2 0 0 0 0 2 2 0 0 0 0 0 2]
         [0 2 0 0 2 0 0 0 2 2 2 2 2 2 2 2 0 2 0 0 0 2 0 2 0 0 0 0 2 0 0 0 0
         0 0 2 0 0 0 2 0 0 2 0 0 0 0 2 0]
         [0 0 2 0 0 0 0 2 0 2 2 2 2 2 2 2 2 2 0 0 0 0 2 2 2 0 0 0 0 2 0 0 2
         0 0 0 2 0 0 0 2 0 0 2 0 0 0 0 2]
         [2 2 0 2 0 0 0 2 2 0 2 2 2 2 0 2 2 0 0 0 0 2 0 2 2 2 0 0 0 0 2 0 0
         2 0 0 0 2 0 0 0 2 0 0 2 0 0 0 0]
         [2 0 2 0 2 0 0 2 2 2 0 2 2 2 0 0 2 0 2 0 0 0 2 0 2 2 2 0 2 0 0 2 0
         0 2 0 0 0 2 0 0 0 0 0 0 2 0 0 0]
         [2 2 0 2 0 2 0 2 2 2 2 0 2 2 0 0 0 0 2 2 0 0 0 0 0 2 0 2 0 2 0 2 2
         0 0 2 0 0 0 2 0 0 0 0 0 0 2 0 0]
         [0 0 2 0 0 2 2 2 2 2 2 2 0 2 0 0 0 0 2 2 2 0 0 0 0 0 2 0 0 0 2 2 0
         2 0 0 2 0 0 0 2 0 2 0 0 0 0 2 0]
         [0 0 0 2 2 2 2 2 2 2 2 2 2 0 0 0 0 0 0 2 2 0 0 0 0 0 0 2 0 0 0 0 0
         0 2 0 0 2 0 0 0 2 0 2 0 0 0 0 2]
         [2 0 0 0 0 0 0 2 2 0 0 0 0 0 0 2 2 2 2 2 2 2 2 0 2 0 0 0 2 0 2 0 0
         0 0 2 0 0 2 0 0 0 2 0 0 0 2 0 0]
         [2 2 0 0 2 0 0 2 2 2 0 0 0 0 2 0 2 0 2 2 2 2 2 2 0 2 0 0 0 2 0 0 0
         0 0 0 2 0 0 2 0 0 0 2 0 0 0 2 0]
         [2 2 2 0 0 0 0 0 2 2 2 0 0 0 2 2 0 2 2 2 2 0 2 0 2 0 0 0 2 0 2 2 2
         0 0 0 0 2 0 0 2 0 0 0 2 0 0 0 2]
         [0 0 2 0 0 2 2 2 2 0 0 0 0 0 2 0 2 0 0 0 0 2 0 2 2 2 0 0 2 0 0 2 2
         0 0 2 0 0 0 0 2 0 2 0 0 0 0 0 2]
         [2 0 2 2 0 0 2 0 0 0 2 2 2 0 2 2 2 0 0 2 2 0 0 0 2 0 2 0 0 0 2 2 2
         0 2 0 2 0 0 2 0 0 2 0 0 0 2 0 0]
         [2 0 0 2 2 2 0 0 0 0 0 2 2 2 2 2 2 0 2 0 2 0 0 0 0 2 2 2 0 0 0 0 0
         2 0 0 0 2 0 0 2 0 0 2 0 0 0 2 0]
         [2 0 0 0 0 0 2 0 0 0 0 0 2 2 2 2 2 0 2 2 0 0 0 0 0 0 2 2 0 0 0 2 2
         0 2 0 0 0 2 0 0 2 0 0 2 0 0 0 2]
         [0 2 2 2 0 0 0 2 0 2 0 0 0 0 2 2 0 2 0 0 0 0 2 0 0 2 2 2 2 2 0 0 0
         0 0 2 0 2 0 0 0 0 2 0 0 2 0 0 0]
         [0 2 2 2 0 0 0 0 2 0 2 0 0 0 2 2 2 0 0 0 0 2 0 2 0 0 2 2 2 2 2 2 0
         0 0 0 2 0 2 0 0 0 0 2 0 0 2 0 0]
         [2 0 0 2 0 2 2 2 2 2 0 0 0 0 0 2 0 2 0 0 0 0 2 0 2 2 0 0 0 2 0 2 0
         2 0 0 2 0 0 0 0 2 0 2 0 0 0 0 0]
         [0 2 0 0 0 2 2 0 2 2 2 0 0 0 2 0 2 2 2 0 0 0 0 2 0 2 2 0 0 0 2 2 0
         0 2 0 0 2 0 0 0 0 0 0 2 0 0 0 0]
         [2 0 2 0 2 2 2 0 0 2 2 2 0 0 0 2 0 2 0 2 0 2 0 2 2 0 0 2 0 0 0 2 0
         0 0 0 0 0 2 0 0 0 0 0 0 2 0 0 0]
         [0 2 2 2 0 2 0 0 0 0 2 0 2 0 0 0 0 0 2 2 2 2 2 0 2 0 0 2 0 0 0 0 2
         2 2 0 0 0 2 0 2 0 0 0 2 0 0 2 0]
         [0 2 2 2 0 0 2 0 0 0 0 2 0 2 0 0 0 0 0 2 2 2 2 0 0 2 2 0 0 0 0 0 0
         2 2 0 0 0 0 2 0 2 0 0 0 2 0 0 2]
         [0 0 0 0 2 0 0 2 0 0 2 0 0 0 2 0 2 2 0 0 0 2 2 0 0 0 0 0 0 2 2 2 2
         2 2 2 2 0 0 0 0 0 2 0 2 0 0 0 0]
         [2 2 0 0 2 2 0 0 2 0 0 2 0 0 0 2 0 0 0 0 0 2 2 2 0 0 0 0 2 0 2 0 2
         2 2 2 2 2 0 0 0 0 0 2 0 2 0 0 0]
         [0 2 2 0 2 0 2 0 0 2 0 0 2 0 2 0 2 0 2 0 0 0 2 0 2 0 0 0 2 2 0 0 2
         2 2 0 2 2 2 0 0 0 2 0 2 0 2 0 0]
         [0 0 0 2 0 2 2 0 0 0 2 2 2 0 0 0 2 2 2 0 2 0 2 2 2 2 0 0 2 0 0 0 2
         0 0 0 0 0 0 2 0 0 0 0 0 0 2 0 0]
         [0 0 2 2 2 0 0 0 2 0 0 2 0 0 0 0 2 2 2 0 2 0 0 0 0 0 2 0 2 2 2 2 0
         2 2 0 0 0 2 2 2 0 0 0 2 0 2 0 2]
         [2 0 0 2 2 2 0 0 0 2 0 0 2 0 0 0 0 0 0 2 0 0 0 2 0 0 2 2 2 2 2 0 2
         0 2 0 0 0 0 2 2 2 0 0 0 2 0 2 0]
         [0 0 0 0 2 0 2 0 0 0 2 0 0 2 0 0 0 0 2 0 2 0 0 0 2 0 2 2 2 2 2 0 2
         2 0 0 0 0 0 0 2 2 0 0 0 0 2 0 2]
         [2 2 0 0 0 2 0 2 0 0 0 2 0 0 2 0 0 2 0 0 0 2 0 0 0 0 0 0 2 2 0 0 0
         0 0 0 2 2 2 2 2 2 2 2 0 0 0 0 0]
         [0 0 2 0 0 0 2 0 2 0 0 0 2 0 0 2 0 0 2 0 0 0 2 2 0 0 0 0 2 2 2 0 0
         0 0 2 0 2 2 2 2 2 2 2 2 0 0 0 0]
         [0 2 0 2 2 0 0 0 0 2 0 0 0 2 0 0 2 0 0 2 0 2 0 0 2 0 0 0 0 2 2 0 0
         0 0 2 2 0 2 2 2 2 0 2 2 2 0 0 0]
         [2 0 2 0 2 0 0 0 0 0 2 0 0 0 2 0 0 0 0 0 2 0 2 0 0 2 2 0 0 0 2 0 2
         0 0 2 2 2 0 2 2 2 0 0 2 2 2 0 0]
         [0 2 0 2 2 0 0 2 0 0 0 2 0 0 0 2 0 0 2 0 0 0 0 0 0 0 0 2 0 0 0 2 2
         2 0 2 2 2 2 0 2 2 0 0 0 2 2 2 0]
         [0 0 2 0 0 2 0 0 2 0 0 0 2 0 0 0 2 2 0 2 0 0 0 0 0 0 2 0 0 0 0 0 2
         2 2 2 2 2 2 2 0 2 0 0 0 0 2 2 2]
         [2 0 0 2 0 0 2 0 0 2 0 0 0 2 0 0 0 0 0 0 2 0 0 2 0 0 0 2 0 0 0 0 0
         2 2 2 2 2 2 2 2 0 0 0 0 0 0 2 2]
         [0 0 2 0 0 0 2 2 0 0 0 0 2 0 2 0 0 2 2 0 0 2 0 0 0 0 0 0 2 0 2 0 0
         0 0 2 2 0 0 0 0 0 0 2 2 2 2 2 2]
         [0 0 0 2 2 0 0 0 2 0 0 0 0 2 0 2 0 0 0 2 0 0 2 2 0 0 0 0 0 2 0 0 0
         0 0 2 2 2 0 0 0 0 2 0 2 2 2 2 2]
         [0 2 0 0 0 0 0 0 0 2 0 0 0 0 0 0 2 0 0 0 2 0 0 0 2 0 2 0 2 0 2 0 2
         0 0 0 2 2 2 0 0 0 2 2 0 2 2 2 2]
         [2 0 2 0 2 0 0 0 0 0 2 0 0 0 0 0 0 0 0 0 0 2 0 0 0 2 0 2 0 2 0 0 0
         2 0 0 0 2 2 2 0 0 2 2 2 0 2 2 2]
         [0 0 0 2 0 0 0 0 0 0 0 2 0 0 2 0 0 0 2 0 0 0 2 0 0 0 0 0 0 0 2 2 2
         0 2 0 0 0 2 2 2 0 2 2 2 2 0 2 2]
         [0 2 0 0 2 2 0 2 0 0 0 0 2 0 0 2 0 0 0 2 0 0 0 0 0 0 2 0 0 0 0 0 0
         2 0 0 0 0 0 2 2 2 2 2 2 2 2 0 2]
         [0 0 2 0 0 0 2 0 2 0 0 0 0 2 0 0 2 2 0 0 2 0 0 0 0 0 0 2 0 0 0 0 2
         0 2 0 0 0 0 0 2 2 2 2 2 2 2 2 0]]

<<< post process


<<< done

